NAME : CMT1
COMMENT : 524.61
TYPE : CVRP
DIMENSION : 13
EDGE_WEIGHT_TYPE : EUC_2D
CAPACITY : 160
NODE_COORD_SECTION
1 30.00000 40.00000
2 37.00000 52.00000
3 49.00000 49.00000
4 52.00000 64.00000
5 20.00000 26.00000
6 40.00000 30.00000
7 21.00000 47.00000
8 17.00000 63.00000
9 31.00000 62.00000
10 52.00000 33.00000
11 51.00000 21.00000
12 42.00000 41.00000
13 31.00000 32.00000
DEMAND_SECTION
1 0
2 7
3 30
4 16
5 9
6 21
7 15
8 19
9 23
10 11
11 5
12 19
13 29
DEPOT_SECTION
1
-1
EOF
